c Lingeling SAT Solver
c 
c Version ala b02aa1a04343558c4252b5f4a723be021964f652
c 
c Copyright (C) 2010-2012 Armin Biere JKU Linz Austria.
c All rights reserved.
c 
c released Sat Oct 13 14:05:26 CEST 2012
c compiled Sat Feb 16 02:48:12 EST 2013
c 
c gcc (Debian 4.4.5-8) 4.4.5
c -Wall -O3 -DNLGLOG -DNDEBUG -DNCHKSOL -DNLGLPICOSAT 
c Linux greencar2 2.6.32-5-amd64 x86_64
c 
c reading input file p69.cnf
c no embedded options
c found 'p cnf 223143 686477' header
c read 223143 variables, 686477 clauses, 1427419 literals in 0.0 seconds
c
c feature vars 223143
c feature lits.total 1427419
c feature lits.pos 761813
c feature lits.neg 665606
c feature clauses.total 686477
c feature clauses.unit 83907
c feature clauses.bin 484198
c feature clauses.trn 116972
c feature clauses.lrg 1400
c feature cog.val.min 1
c feature cog.val.avg 99379
c feature cog.val.max 213701
c feature cog.var.min 1
c feature cog.var.avg 111572
c feature cog.var.max 223142
c
c
c --abstime=0
c --acts=2
c --actavgmax=120
c --actstdmin=20
c --actstdmax=80
c --agile=23
c --bias=2
c --block=1
c --blkrtc=0
c --blkclslim=2000
c --blkocclim=2000
c --blkmaxeff=2147483647
c --blkmineff=10000000
c --blkreleff=20
c --card=0
c --cce=3
c --ccemaxeff=100000000
c --ccemineff=5000000
c --ccereleff=3
c --check=0
c --cgrclsr=1
c --cgrmaxority=20
c --cgrmaxeff=8000000
c --cgrmineff=200000
c --cgreleff=1
c --cgrexteq=1
c --cgrextand=1
c --cgrextunits=1
c --cgrextite=1
c --cgrextxor=1
c --cliff=1
c --cliffreleff=8
c --cliffmineff=10000000
c --cliffmaxeff=100000000
c --compact=0
c --decompose=1
c --defragint=10000000
c --defragfree=50
c --elim=1
c --elmrtc=0
c --elmblk=1
c --elmclslim=1000
c --elmocclim=1000
c --elmaxeff=100000000
c --elmineff=5000000
c --elmreleff=10
c --sleeponabort=0
c --exitonabort=0
c --flipping=1
c --flipint=2
c --flipdur=50
c --fliptop=1
c --force=0
c --gauss=1
c --gaussextrall=1
c --gaussmaxor=20
c --gaussexptrn=1
c --gaussmaxeff=50000000
c --gaussmineff=2000000
c --gaussreleff=2
c --gluescale=2
c --gluekeep=0
c --inprocessing=1
c --cintinc=10000
c --irrlim=20
c --lift=1
c --lftmaxeff=20000000
c --lftmineff=500000
c --lftreleff=6
c --lhbr=1
c --lkhd=1
c --clim=-1
c --mocint=1000
c --move=2
c --log=-1
c --otfs=1
c --phase=0
c --phaseneginit=0
c --plain=0
c --probe=1
c --prbasicmaxeff=100000000
c --prbasicmineff=1000000
c --prbasicreleff=10
c --prbasic=1
c --prbasicroundlim=9
c --queuemergelim=10000
c --queuefactor=833
c --queueinc=20
c --rmincpen=4
c --seed=0
c --smallirr=90
c --smallve=1
c --smallvevars=12
c --randec=1
c --randecint=1000
c --redfixed=0
c --redlbound=0
c --redlexpfac=10
c --redldoutfac=0
c --redloutinc=10000
c --redlinit=1000
c --redlinc=1000
c --redinoutinc=100
c --redlmininc=10
c --redlmaxinc=200
c --redlminrel=10
c --redlmaxrel=300
c --redlminabs=500
c --redlmaxabs=1000000
c --reduce=1
c --restart=2
c --restartint=5
c --rstinoutinc=110
c --simplify=1
c --simpdelay=100
c --simpen=4
c --sizepen=1000000
c --sizemaxpen=3
c --sortlits=0
c --syncint=111111
c --termint=122222
c --ternres=1
c --ternresrtc=0
c --trnrmineff=4000000
c --trnrmaxeff=40000000
c --trnreleff=10
c --transred=1
c --trdmineff=100000
c --trdmaxeff=2000000
c --trdreleff=10
c --unhide=1
c --unhdextstamp=1
c --unhdhbr=0
c --unhdmaxeff=20000000
c --unhdmineff=1000000
c --unhdreleff=4
c --unhdlnpr=3
c --unhdroundlim=5
c --verbose=1
c --witness=1
c [limits] no conflict limit
c [limits] simplification delayed by 100 to 100 conflicts
c 
c  seconds         irredundant          redundant clauses agility   height
c          variables clauses conflicts large binary ternary    glue         MB
c 
c *    0.0  120772   501500         0       0      0     0  64  0.0   0.0   42
c [cut-width] 166750, max 264299, min4 102876 at 75%, min10 36743 at 88%
c [decision-order] bias 1, old 1
c [queue-schedule-all-variables]
c s    0.0  120772   501500         0       0      0     0  64  0.0   0.0   42
c [simplification-1] limit hit at 100 conflicts
c [simplification-1] simplification penalty of 4
c [ternres-1] limit 4000000 with penalty 0 = 0 + 0
c [ternres-1] all 120772 free variables schedulable
c [ternres-1] 0 ternary resolvents (0 bin, 0 trn)
c [ternres-1] 3526 variables remain 3% (117246 retained)
c [gauss-1] limit 2000000 penalty 0 = 0 + 0
c [gauss-1] extracted 171202 xors of average arity 2.0
c [gauss-1] connected 342406 occurrences of 112722 variables (average 3.0)
c [gauss-1] limit 2000000 penalty 0 = 0 + 0
c d    0.8   55022   246062       100     100      0     0  56  4.5 190.4   20
c [gauss-1] exported 0 unary, 3 binary and 0 ternary equations
c G    0.8   55022   246062       100     100      0     0  56  4.5 190.4   20
c [basicprobe-1] limit 1000000 penalty 0 = 0 + 0
c [basicprobe-1-0] 4579 probes remain 8% after last round
c [basicprobe-1-0] removed 0 variables, found 2940 hbrs
c p    1.0   55022   246062       100     100   2940     0  56  4.5 190.4   25
c [cgrclsr-1] limit 200000 penalty 0 = 0 + 0
c [cgrclsr-1] all 55022 free variables schedulable
c [cgrclsr-1] fully completed congruence closure
c [lift-1] limit 500000 with penalty 0 = 0 + 0
c [lift-1] using 55022 probes 100%
c [lift-1] 54974 variables remain 100% (48 retained)
c [cliff-1] limit of 10000000 steps penalty 0 = 0 + 0
c [cliff-1] failed 3, lifted 3
c K    1.5   55010   246062       100     100  16594     0  56  4.5 190.4   25
c [unhide-1] limit 1000000 with penalty 0 = 0 + 0
c [unhide-1-1] 0 units, 1 failed, 18859 tauts, 0 hbrs, 48 literals
c u    1.7   55009   227147       100     100  16591     0  56  4.5 190.4   21
c [transred-1] limit 100000 with penalty 0 = 0 + 0
c t    1.7   55009   227143       100     100  16581     0  56  4.5 190.4   21
c [block-1] scheduling all variables this time
c [block-1] scheduled 55009 variables 100%
c [block-1] limit of 10000000 steps penalty 0 = 0 + 0
c [block-1] fully completed blocked clause elimination
c [block-1] transition to [ all 0 rem 0 ] state
c [block-1] eliminated 5000 blocked clauses
c k    1.8   55009   222138       100     100  16581  5000  56  4.5 190.4   21
c [cce-1] scheduling all variables this time
c [cce-1] limit of 10000000 steps penalty 0 = 0 + 0
c [cce-1] incomplete covered clause elimination 49099 not tried 89%
c [cce-1] transition to [ all 1 rem 1 ] state
c [cce-1] eliminated 151 covered clauses
c E    2.3   55005   221987       100     100  23125  5000  56  4.5 190.4   21
c [elim-1] scheduling all variables this time
c [elim-1] scheduled 55005 variables 100%
c [elim-1] limit of 5000000 steps penalty 0 = 0 + 0
c [elim-1] incomplete variable elimination 39788 not tried 72%
c [elim-1] transition to [ all 1 rem 1 ] state
c [elim-1] eliminated 6968 = 13% variables out of 55005
c e    3.3   48037   217790       100      59   5781   720  56  4.5 190.4   20
c [phase-1] phase bias: 1974 positive 16%, 10429 negative 84%
c [simplification-1] removed 72735 variables 60%
c [simplification-1] limit increments divided by 31
c [simplification-1] arithmetic increase of conflict limit interval by 322
c [simplification-1] new irredundant limit 2210657
c [simplification-1] new conflict limit 422
c [simplification-1] simplification penalty reduced to 3
c R    3.4   48037   217790       406     328   5789   748   3  5.1 187.1   25
c [simplification-2] limit hit at 424 conflicts
c [simplification-2] simplification penalty of 3
c [ternres-2] limit 2000000 with penalty 1 = 1 + 0
c [ternres-2] 1413 schedulable variables 3%
c [ternres-2] 3 ternary resolvents (0 bin, 3 trn)
c [ternres-2] fully completed ternary resolution
c T    3.5   48037   217790       424     346   5789   751   3  5.2 192.8   25
c [gauss-2] limit 2000000 penalty 0 = 0 + 0
c [gauss-2] extracted 1276 xors of average arity 3.0
c [gauss-2] connected 3828 occurrences of 2011 variables (average 1.9)
c [gauss-2] limit 2000000 penalty 0 = 0 + 0
c [gauss-2] fully completed
c [gauss-2] exported 0 unary, 0 binary and 0 ternary equations
c G    3.6   48037   217790       424     346   5789   751   3  5.2 192.8   20
c [basicprobe-2] limit 500000 penalty 1 = 1 + 0
c [basicprobe-2-0] 4639 probes remain 10% after last round
c [basicprobe-2-0] removed 0 variables, found 451 hbrs
c p    3.7   48037   217790       424     346   6240   751   3  5.2 192.8   24
c [cgrclsr-2] limit 100000 penalty 1 = 1 + 0
c [cgrclsr-2] all 48037 free variables schedulable
c [cgrclsr-2] fully completed congruence closure
c [lift-2] limit 250000 with penalty 1 = 1 + 0
c [lift-2] using 47994 probes 100%
c [lift-2] 47968 variables remain 100% (69 retained)
c [cliff-2] limit of 10000000 steps penalty 0 = 0 + 0
c [cliff-2] failed 0, lifted 1
c K    4.3   48036   217790       424     346   7233   751   3  5.2 192.8   24
c [unhide-2] limit 1000000 with penalty 0 = 0 + 0
c [unhide-2-2] 0 units, 0 failed, 1478 tauts, 0 hbrs, 105 literals
c u    4.4   48036   217773       424     345   5756   751   3  5.2 192.8   24
c [transred-3] limit 100000 with penalty 0 = 0 + 0
c t    4.4   48036   217772       424     345   5751   751   3  5.2 192.8   24
c [block-2] scheduling all variables this time
c [block-2] scheduled 48036 variables 100%
c [block-2] limit of 10000000 steps penalty 0 = 0 + 0
c [block-2] fully completed blocked clause elimination
c [block-2] transition to [ all 0 rem 0 ] state
c [block-2] eliminated 0 blocked clauses
c [cce-2] 44988 variables 94% will be scheduled this time
c [cce-2] limit of 10000000 steps penalty 0 = 0 + 0
c [cce-2] 44437 variables 93% remain to be tried next time
c [cce-2] transition to [ all 0 rem 1 ] state
c [cce-2] eliminated 395 covered clauses
c E    4.9   48036   217377       424     345   6355   751   3  5.2 192.8   20
c [elim-2] 39704 variables 83% will be scheduled this time
c [elim-2] scheduled 39704 variables 83%
c [elim-2] limit of 5000000 steps penalty 0 = 0 + 0
c [elim-2] 29849 variables 62% remain to be tried next time
c [elim-2] transition to [ all 0 rem 1 ] state
c [elim-2] eliminated 1408 = 3% variables out of 48036
c e    5.9   46628   216773       424     342   3822   751   3  5.2 192.8   20
c [phase-2] phase bias: 2 positive 67%, 1 negative 33%
c [simplification-2] removed 1409 variables 2%
c [simplification-2] limit increments divided by 2
c [simplification-2] arithmetic increase of conflict limit interval by 5000
c [simplification-2] new irredundant limit 2210657
c [simplification-2] new conflict limit 5746
c [simplification-2] simplification penalty reduced to 2
c R    6.2   46628   216773       969     804   3844   807   4  5.5 239.8   25
c -    6.4   46628   216773      1234     502   3866   846   3  5.2 213.4   25
c R    6.7   46628   216773      2258    1424   3910   898   7  5.9 229.1   25
c 
c  seconds         irredundant          redundant clauses agility   height
c          variables clauses conflicts large binary ternary    glue         MB
c 
c -    7.5   46628   216773      4280    1553   4014  1171   4  6.3 216.6   25
c R    7.7   46628   216773      5162    2422   4015  1183   7  7.3 243.6   25
c [simplification-3] limit hit at 5746 conflicts
c [simplification-3] simplification penalty of 2
c [ternres-3] limit 4000000 with penalty 0 = 0 + 0
c [ternres-3] all 46628 free variables schedulable
c [ternres-3] 452 ternary resolvents (5 bin, 447 trn)
c [ternres-3] fully completed ternary resolution
c T    8.1   46628   216773      5746    2876   4061  1710   3  7.1 242.1   26
c [gauss-3] limit 1000000 penalty 1 = 1 + 0
c [gauss-3] extracted 624 xors of average arity 3.0
c [gauss-3] connected 1872 occurrences of 1401 variables (average 1.3)
c [gauss-3] limit 1000000 penalty 1 = 1 + 0
c [gauss-3] fully completed
c [gauss-3] exported 0 unary, 0 binary and 0 ternary equations
c G    8.2   46628   216773      5746    2876   4061  1710   3  7.1 242.1   21
c [basicprobe-3] limit 250000 penalty 2 = 2 + 0
c [basicprobe-3-0] 4504 probes remain 10% after last round
c [basicprobe-3-0] removed 0 variables, found 383 hbrs
c p    8.3   46628   216773      5746    2876   4444  1704   3  7.1 242.1   25
c [cgrclsr-3] limit 68234 based on 545879 irredundant literals
c [cgrclsr-3] all 46628 free variables schedulable
c [cgrclsr-3] fully completed congruence closure
c [lift-3] limit 125000 with penalty 2 = 2 + 0
c [lift-3] using 46562 probes 100%
c [lift-3] 46545 variables remain 100% (83 retained)
c [cliff-3] limit of 10000000 steps penalty 0 = 0 + 0
c [cliff-3] failed 0, lifted 0
c [unhide-3] limit 1000000 with penalty 0 = 0 + 0
c [unhide-3-3] 0 units, 0 failed, 1868 tauts, 0 hbrs, 1834 literals
c u    8.9   46628   214938      5746    2853   5210  1667   3  7.1 242.1   25
c [transred-5] limit 579301 with penalty 0 = 0 + 0
c t    9.0   46628   214929      5746    2853   5203  1667   3  7.1 242.1   25
c [block-3] scheduling all variables this time
c [block-3] scheduled 46628 variables 100%
c [block-3] limit of 5000000 steps penalty 1 = 1 + 0
c [block-3] fully completed blocked clause elimination
c [block-3] transition to [ all 0 rem 0 ] state
c [block-3] eliminated 0 blocked clauses
c [cce-3] scheduling all variables this time
c [cce-3] limit of 10000000 steps penalty 0 = 0 + 0
c [cce-3] 42692 variables 92% remain to be tried next time
c [cce-3] transition to [ all 1 rem 1 ] state
c [cce-3] eliminated 385 covered clauses
c E    9.5   46628   214544      5746    2853   5631  1660   3  7.1 242.1   21
c [elim-3] scheduling all variables this time
c [elim-3] scheduled 46628 variables 100%
c [elim-3] limit of 5000000 steps penalty 0 = 0 + 0
c [elim-3] 29160 variables 63% remain to be tried next time
c [elim-3] transition to [ all 1 rem 1 ] state
c [elim-3] eliminated 478 = 1% variables out of 46628
c e   10.5   46150   214111      5746    2822   4605  1651   3  7.1 242.1   21
c [simplification-3] removed 478 variables 1%
c [simplification-3] no reduction of limit increments
c [simplification-3] arithmetic increase of conflict limit interval by 10000
c [simplification-3] new irredundant limit 2210657
c [simplification-3] new conflict limit 21068
c [simplification-3] simplification penalty reduced to 1
c -   11.7   46150   214111      8394    2680   4709  1871   4  7.2 240.4   25
c R   12.7   46150   214111     11627    5679   4759  2038   5  7.4 243.3   26
c -   13.5   46150   214111     13226    3503   4844  2202   4  7.2 236.6   25
c 1   15.3   46150   214111     17554    7363   4989  2493   5  7.5 242.6   26
c 
c  seconds         irredundant          redundant clauses agility   height
c          variables clauses conflicts large binary ternary    glue         MB
c 
c blkd: 3 bces, 5000 removed, 1962299 resolutions, 5396726 steps
c blkd: 5000 blocking literals 1%, 0 pure
c cces: 3 cces, 913 eliminated, 913 ate 100%, 0 abce 0%
c cces: 19868 probed, 2 lifted, 4 failed
c clff: 3 cliffs, 4 lifted, 3 failed
c clff: 17656 decisions, 30013924 steps
c clls: 1 sat, 0 simp, 0 freeze, 0 melt
c clls: 2113896 add, 0 assume,, 0 deref, 0 failed
c clls: 0 cassume, 0 mosat
c coll: 19 gcs, 0 rescored clauses
c cgrs: 3 count, 368234 esteps, 96699 csteps
c cgrs: 0 eqs, 0 units
c cgrs: 0 matched (0 ands 0%, 0 xors 0%, 0 ites 0%)
c cgrs: 0 simplified (0 ands 0%, 0 xors 0%, 0 ites 0%)
c cgrs: 2499 extracted (2145 ands 86%, 354 xors 14%, 0 ites 0%)
c dcps: 4 decompositions, 65750 equivalent 29%
c decs: 352799 decision, 352 random 0.100%
c decs: 77343 flipped 21.923% (in 110 phases)
c elms: 3 elims, 8854 eliminated 4%
c elms: 8854 small 100%, 0 large 0%
c elms: 36809 tried small, 8854 succeeded 24%, 27955 failed 76%
c elms: 0 subsumed, 0 strengthened, 0 blocked
c elms: 479930 copies, 331598 resolutions, 975450 ipos
c elms: 6 subchks, 0 strchks
c frcs: 0 computed, 24.1 - 75.9 average min-cut range
c gaus: 3 extractions, 173102 extracted, 2.0 size, 3 max
c gaus: exported 0 units, 3 binary and 0 ternary equations
c gaus: 0 gc, 10000054 steps, 5000027 extr 50%, 2683959 elim 27%
c glue: 7.5 avg, 2.7 scaled avg
c glue: 0 maxredglue=15 (0%)
c lift: 3 phases, 546 probed (182 level1 33%, 364 level2 67%)
c lift: 0 units, 0 equivalences, 0 implications
c hbrs: 25845 hbrs = 25845 trn 100% + 0 lrg 0%, 30 sub 0%
c lrnd: 17408 clauses, 10534 uips 61%, 28.3 length, 7.5 glue
c ints: 828 luby (115692 steps), 0 inout (0 steps)
c mins: 492081 learned lits, 6% minimized
c move: moved 5913, 913 binary 15%, 5000 ternary 85%
c otfs: str 920 dyn (824 red, 96 irr) 146 drv 16%, 774 rst 84%
c otfs: sub 3 dyn (3 red, 0 irr)
c phas: 2 computed, 12532 set, 1976 pos (16%), 10556 neg (84%)
c prbs: 3 basic, 2504 probed, 0 failed, 0 lifted
c prps: 44706493 props, 98 props/dec
c prps: 77% srch, 23% simp, 0% lkhd
c psns: 2042510 searches, 301449 hits, 15% hit rate
c queu: 62376 new, 21947 del, 120 maximum priority
c queu: 40414 merged, 32216 collected, 6 gcs
c queu: 18328 deprioritized, 22.9 lines on average
c reds: 4 count, 0 reset, 4 acts 100%, 0 exp 0%
c reds: 4 arithmetic 100%, 4 double 100%
c rmbd: 16 removed, 1 red 6%
c rsts: 772 restarts 93%, 55 skipped 7%
c rsts: 95 kept 12.3% average 44.0%
c simp: 3 count (0 ilim 0%, 0 plim 0%, 3 clim 100%)
c trnr: 3 count, 5 bin, 450 trn, 7607339 steps
c tops: 102389 fixed 46%, 0 iterations
c trds: 6 transitive reductions, 36 removed, 0 failed
c trds: 1148 nodes, 1641 edges, 779680 steps
c unhd: 3 count, 3 rounds, 3399707 steps
c unhd: 0 non-trivial sccs of average size 0.0
c unhd: 0 units, 0 bin, 0 trn, 0 lrg
c unhd: 1 failed, 1 stamp, 0 lits, 0 bin, 0 trn, 0 lrg
c unhd: 22205 tauts, 4 bin 0%, 659 trn 3%, 17 lrg 0%
c unhd: 22205 tauts, 21525 stamp 97%, 1518 red 7%
c unhd: 0 hbrs, 0 trn 0%, 0 lrg 0%, 0 red 0%
c unhd: 1987 strd, 0 bin 0%, 10 trn 1%, 1977 lrg 99%, 1985 red 100%
c vars: 46150 remaining 21% and 176993 removed 79% out of 223143
c vars: 102389 fixed 46%, 8854 eliminated 4%, 65750 equivalent 29%
c vsts: 222761951 visits, 79% srch, 21% simp, 0% lkhd
c vsts: 5.1 search visits per propagation 10061.3 per conflict
c wchs: 15543695 pushed, 5361074 enlarged, 32 defrags
c 
c scaledglue  added       reduced       forcing      resolved     conflicts
c 
c all     15420 100      7935 100    162791 100     36331 100      3732 100
c 
c  0          0   0         0   0         0   0         0   0         0   0 
c  1         94   1        31   0      1062   1       193   1         5   0 
c  2       5151  33      2554  32     75902  47     10816  30      1000  27 
c  3       5941  39<     2934  37<    72144  44<    16886  46<     2044  55<
c  4       2822  18      1624  20     11158   7      5844  16       526  14 
c  5        924   6       507   6      1746   1      1769   5       117   3 
c  6        303   2       170   2       509   0       517   1        29   1 
c  7         96   1        55   1       153   0       169   0         6   0 
c  8         60   0        38   0        81   0        99   0         5   0 
c  9         20   0        16   0        25   0        27   0         0   0 
c 10          8   0         5   0        10   0        10   0         0   0 
c 11          0   0         0   0         0   0         0   0         0   0 
c 12          0   0         0   0         0   0         0   0         0   0 
c 13          1   0         1   0         1   0         1   0         0   0 
c 14          0   0         0   0         0   0         0   0         0   0 
c 15          0   0         0   0         0   0         0   0         0   0 
c 
c avg             3.1           3.1           2.6           3.0           3.0
c std             1.1           1.1           0.7           1.0           0.8
c 
c 352799 decisions, 17554 conflicts, 1146.9 conflicts/sec
c 44706493 propagations, 2.9 megaprops/sec
c 15.3 seconds, 47.4 MB
c 
c    0.920   6% analysis
c    0.456   3% block
c    0.068   0% bump
c    0.000   0% card
c    1.216   8% cce
c    1.048   7% cliff
c    0.012   0% cutwidth
c    0.324   2% decide
c    0.000   0% force
c    0.824   5% gc
c    0.300   2% cgrclsr
c    0.400   3% decomp
c    0.236   2% defrag
c    2.908  19% elim
c    0.988   6% gauss
c    0.264   2% lift
c    0.152   1% mincls
c    0.048   0% phase
c    0.112   1% probe
c    0.020   0% reduce
c    0.316   2% restart
c    0.128   1% ternres
c    0.048   0% transred
c    0.364   2% unhide
c ==================================
c    0.020   0% preprocessing     0%
c    8.277  54% inprocessing    100%
c ==================================
c    8.297  54% simplifying
c    0.000   0% lookahead
c    7.000  46% search
c ==================================
c   15.305 100% all
c
s SATISFIABLE
